p cnf 14 29
-14 -13 -8 0
14 -13 8 0
14 -13 -7 0
-14 -13 3 0
14 -11 -10 0
-14 7 -1 0
-14 -4 -2 0
14 -4 2 0
14 3 2 0
13 5 2 0
-12 -10 -9 0
-12 10 -6 0
12 8 -6 0
12 7 5 0
-12 5 4 0
11 -9 8 0
11 -8 -7 0
11 -5 -4 0
-10 9 -8 0
-10 -8 -4 0
10 -7 4 0
-10 -7 3 0
-10 7 2 0
10 6 -1 0
10 4 -2 0
9 -5 2 0
-7 6 -2 0
7 -4 2 0
6 -5 -1 0
